MIN
  r
ST
  xI1K1J1 + xI1K2J1 + xI1K3J1 + xI1K4J1 + xI1K5J1 + xI1K6J1 = 2
  xI1K1J2 + xI1K2J2 + xI1K3J2 + xI1K4J2 + xI1K5J2 + xI1K6J2 = 3
  xI1K1J3 + xI1K2J3 + xI1K3J3 + xI1K4J3 + xI1K5J3 + xI1K6J3 = 4
  xI1K1J4 + xI1K2J4 + xI1K3J4 + xI1K4J4 + xI1K5J4 + xI1K6J4 = 5
  xI1K1J5 + xI1K2J5 + xI1K3J5 + xI1K4J5 + xI1K5J5 + xI1K6J5 = 6
  xI1K1J6 + xI1K2J6 + xI1K3J6 + xI1K4J6 + xI1K5J6 + xI1K6J6 = 7
  xI1K1J7 + xI1K2J7 + xI1K3J7 + xI1K4J7 + xI1K5J7 + xI1K6J7 = 8
  xI2K1J1 + xI2K2J1 + xI2K3J1 + xI2K4J1 + xI2K5J1 + xI2K6J1 = 3
  xI2K1J2 + xI2K2J2 + xI2K3J2 + xI2K4J2 + xI2K5J2 + xI2K6J2 = 4
  xI2K1J3 + xI2K2J3 + xI2K3J3 + xI2K4J3 + xI2K5J3 + xI2K6J3 = 5
  xI2K1J4 + xI2K2J4 + xI2K3J4 + xI2K4J4 + xI2K5J4 + xI2K6J4 = 6
  xI2K1J5 + xI2K2J5 + xI2K3J5 + xI2K4J5 + xI2K5J5 + xI2K6J5 = 7
  xI2K1J6 + xI2K2J6 + xI2K3J6 + xI2K4J6 + xI2K5J6 + xI2K6J6 = 8
  xI2K1J7 + xI2K2J7 + xI2K3J7 + xI2K4J7 + xI2K5J7 + xI2K6J7 = 9
  xI3K1J1 + xI3K2J1 + xI3K3J1 + xI3K4J1 + xI3K5J1 + xI3K6J1 = 4
  xI3K1J2 + xI3K2J2 + xI3K3J2 + xI3K4J2 + xI3K5J2 + xI3K6J2 = 5
  xI3K1J3 + xI3K2J3 + xI3K3J3 + xI3K4J3 + xI3K5J3 + xI3K6J3 = 6
  xI3K1J4 + xI3K2J4 + xI3K3J4 + xI3K4J4 + xI3K5J4 + xI3K6J4 = 7
  xI3K1J5 + xI3K2J5 + xI3K3J5 + xI3K4J5 + xI3K5J5 + xI3K6J5 = 8
  xI3K1J6 + xI3K2J6 + xI3K3J6 + xI3K4J6 + xI3K5J6 + xI3K6J6 = 9
  xI3K1J7 + xI3K2J7 + xI3K3J7 + xI3K4J7 + xI3K5J7 + xI3K6J7 = 10
  xI4K1J1 + xI4K2J1 + xI4K3J1 + xI4K4J1 + xI4K5J1 + xI4K6J1 = 5
  xI4K1J2 + xI4K2J2 + xI4K3J2 + xI4K4J2 + xI4K5J2 + xI4K6J2 = 6
  xI4K1J3 + xI4K2J3 + xI4K3J3 + xI4K4J3 + xI4K5J3 + xI4K6J3 = 7
  xI4K1J4 + xI4K2J4 + xI4K3J4 + xI4K4J4 + xI4K5J4 + xI4K6J4 = 8
  xI4K1J5 + xI4K2J5 + xI4K3J5 + xI4K4J5 + xI4K5J5 + xI4K6J5 = 9
  xI4K1J6 + xI4K2J6 + xI4K3J6 + xI4K4J6 + xI4K5J6 + xI4K6J6 = 10
  xI4K1J7 + xI4K2J7 + xI4K3J7 + xI4K4J7 + xI4K5J7 + xI4K6J7 = 11
  xI5K1J1 + xI5K2J1 + xI5K3J1 + xI5K4J1 + xI5K5J1 + xI5K6J1 = 6
  xI5K1J2 + xI5K2J2 + xI5K3J2 + xI5K4J2 + xI5K5J2 + xI5K6J2 = 7
  xI5K1J3 + xI5K2J3 + xI5K3J3 + xI5K4J3 + xI5K5J3 + xI5K6J3 = 8
  xI5K1J4 + xI5K2J4 + xI5K3J4 + xI5K4J4 + xI5K5J4 + xI5K6J4 = 9
  xI5K1J5 + xI5K2J5 + xI5K3J5 + xI5K4J5 + xI5K5J5 + xI5K6J5 = 10
  xI5K1J6 + xI5K2J6 + xI5K3J6 + xI5K4J6 + xI5K5J6 + xI5K6J6 = 11
  xI5K1J7 + xI5K2J7 + xI5K3J7 + xI5K4J7 + xI5K5J7 + xI5K6J7 = 12
  xI6K1J1 + xI6K2J1 + xI6K3J1 + xI6K4J1 + xI6K5J1 + xI6K6J1 = 7
  xI6K1J2 + xI6K2J2 + xI6K3J2 + xI6K4J2 + xI6K5J2 + xI6K6J2 = 8
  xI6K1J3 + xI6K2J3 + xI6K3J3 + xI6K4J3 + xI6K5J3 + xI6K6J3 = 9
  xI6K1J4 + xI6K2J4 + xI6K3J4 + xI6K4J4 + xI6K5J4 + xI6K6J4 = 10
  xI6K1J5 + xI6K2J5 + xI6K3J5 + xI6K4J5 + xI6K5J5 + xI6K6J5 = 11
  xI6K1J6 + xI6K2J6 + xI6K3J6 + xI6K4J6 + xI6K5J6 + xI6K6J6 = 12
  xI6K1J7 + xI6K2J7 + xI6K3J7 + xI6K4J7 + xI6K5J7 + xI6K6J7 = 13
  xI7K1J1 + xI7K2J1 + xI7K3J1 + xI7K4J1 + xI7K5J1 + xI7K6J1 = 8
  xI7K1J2 + xI7K2J2 + xI7K3J2 + xI7K4J2 + xI7K5J2 + xI7K6J2 = 9
  xI7K1J3 + xI7K2J3 + xI7K3J3 + xI7K4J3 + xI7K5J3 + xI7K6J3 = 10
  xI7K1J4 + xI7K2J4 + xI7K3J4 + xI7K4J4 + xI7K5J4 + xI7K6J4 = 11
  xI7K1J5 + xI7K2J5 + xI7K3J5 + xI7K4J5 + xI7K5J5 + xI7K6J5 = 12
  xI7K1J6 + xI7K2J6 + xI7K3J6 + xI7K4J6 + xI7K5J6 + xI7K6J6 = 13
  xI7K1J7 + xI7K2J7 + xI7K3J7 + xI7K4J7 + xI7K5J7 + xI7K6J7 = 14
  xI1K1J1 + xI1K1J2 + xI1K1J3 + xI1K1J4 + xI1K1J5 + xI1K1J6 + xI1K1J7 - cI1K1 = 0
  xI1K2J1 + xI1K2J2 + xI1K2J3 + xI1K2J4 + xI1K2J5 + xI1K2J6 + xI1K2J7 - cI1K2 = 0
  xI1K3J1 + xI1K3J2 + xI1K3J3 + xI1K3J4 + xI1K3J5 + xI1K3J6 + xI1K3J7 - cI1K3 = 0
  xI1K4J1 + xI1K4J2 + xI1K4J3 + xI1K4J4 + xI1K4J5 + xI1K4J6 + xI1K4J7 - cI1K4 = 0
  xI1K5J1 + xI1K5J2 + xI1K5J3 + xI1K5J4 + xI1K5J5 + xI1K5J6 + xI1K5J7 - cI1K5 = 0
  xI1K6J1 + xI1K6J2 + xI1K6J3 + xI1K6J4 + xI1K6J5 + xI1K6J6 + xI1K6J7 - cI1K6 = 0
  xI2K1J1 + xI2K1J2 + xI2K1J3 + xI2K1J4 + xI2K1J5 + xI2K1J6 + xI2K1J7 - cI2K1 = 0
  xI2K2J1 + xI2K2J2 + xI2K2J3 + xI2K2J4 + xI2K2J5 + xI2K2J6 + xI2K2J7 - cI2K2 = 0
  xI2K3J1 + xI2K3J2 + xI2K3J3 + xI2K3J4 + xI2K3J5 + xI2K3J6 + xI2K3J7 - cI2K3 = 0
  xI2K4J1 + xI2K4J2 + xI2K4J3 + xI2K4J4 + xI2K4J5 + xI2K4J6 + xI2K4J7 - cI2K4 = 0
  xI2K5J1 + xI2K5J2 + xI2K5J3 + xI2K5J4 + xI2K5J5 + xI2K5J6 + xI2K5J7 - cI2K5 = 0
  xI2K6J1 + xI2K6J2 + xI2K6J3 + xI2K6J4 + xI2K6J5 + xI2K6J6 + xI2K6J7 - cI2K6 = 0
  xI3K1J1 + xI3K1J2 + xI3K1J3 + xI3K1J4 + xI3K1J5 + xI3K1J6 + xI3K1J7 - cI3K1 = 0
  xI3K2J1 + xI3K2J2 + xI3K2J3 + xI3K2J4 + xI3K2J5 + xI3K2J6 + xI3K2J7 - cI3K2 = 0
  xI3K3J1 + xI3K3J2 + xI3K3J3 + xI3K3J4 + xI3K3J5 + xI3K3J6 + xI3K3J7 - cI3K3 = 0
  xI3K4J1 + xI3K4J2 + xI3K4J3 + xI3K4J4 + xI3K4J5 + xI3K4J6 + xI3K4J7 - cI3K4 = 0
  xI3K5J1 + xI3K5J2 + xI3K5J3 + xI3K5J4 + xI3K5J5 + xI3K5J6 + xI3K5J7 - cI3K5 = 0
  xI3K6J1 + xI3K6J2 + xI3K6J3 + xI3K6J4 + xI3K6J5 + xI3K6J6 + xI3K6J7 - cI3K6 = 0
  xI4K1J1 + xI4K1J2 + xI4K1J3 + xI4K1J4 + xI4K1J5 + xI4K1J6 + xI4K1J7 - cI4K1 = 0
  xI4K2J1 + xI4K2J2 + xI4K2J3 + xI4K2J4 + xI4K2J5 + xI4K2J6 + xI4K2J7 - cI4K2 = 0
  xI4K3J1 + xI4K3J2 + xI4K3J3 + xI4K3J4 + xI4K3J5 + xI4K3J6 + xI4K3J7 - cI4K3 = 0
  xI4K4J1 + xI4K4J2 + xI4K4J3 + xI4K4J4 + xI4K4J5 + xI4K4J6 + xI4K4J7 - cI4K4 = 0
  xI4K5J1 + xI4K5J2 + xI4K5J3 + xI4K5J4 + xI4K5J5 + xI4K5J6 + xI4K5J7 - cI4K5 = 0
  xI4K6J1 + xI4K6J2 + xI4K6J3 + xI4K6J4 + xI4K6J5 + xI4K6J6 + xI4K6J7 - cI4K6 = 0
  xI5K1J1 + xI5K1J2 + xI5K1J3 + xI5K1J4 + xI5K1J5 + xI5K1J6 + xI5K1J7 - cI5K1 = 0
  xI5K2J1 + xI5K2J2 + xI5K2J3 + xI5K2J4 + xI5K2J5 + xI5K2J6 + xI5K2J7 - cI5K2 = 0
  xI5K3J1 + xI5K3J2 + xI5K3J3 + xI5K3J4 + xI5K3J5 + xI5K3J6 + xI5K3J7 - cI5K3 = 0
  xI5K4J1 + xI5K4J2 + xI5K4J3 + xI5K4J4 + xI5K4J5 + xI5K4J6 + xI5K4J7 - cI5K4 = 0
  xI5K5J1 + xI5K5J2 + xI5K5J3 + xI5K5J4 + xI5K5J5 + xI5K5J6 + xI5K5J7 - cI5K5 = 0
  xI5K6J1 + xI5K6J2 + xI5K6J3 + xI5K6J4 + xI5K6J5 + xI5K6J6 + xI5K6J7 - cI5K6 = 0
  xI6K1J1 + xI6K1J2 + xI6K1J3 + xI6K1J4 + xI6K1J5 + xI6K1J6 + xI6K1J7 - cI6K1 = 0
  xI6K2J1 + xI6K2J2 + xI6K2J3 + xI6K2J4 + xI6K2J5 + xI6K2J6 + xI6K2J7 - cI6K2 = 0
  xI6K3J1 + xI6K3J2 + xI6K3J3 + xI6K3J4 + xI6K3J5 + xI6K3J6 + xI6K3J7 - cI6K3 = 0
  xI6K4J1 + xI6K4J2 + xI6K4J3 + xI6K4J4 + xI6K4J5 + xI6K4J6 + xI6K4J7 - cI6K4 = 0
  xI6K5J1 + xI6K5J2 + xI6K5J3 + xI6K5J4 + xI6K5J5 + xI6K5J6 + xI6K5J7 - cI6K5 = 0
  xI6K6J1 + xI6K6J2 + xI6K6J3 + xI6K6J4 + xI6K6J5 + xI6K6J6 + xI6K6J7 - cI6K6 = 0
  xI7K1J1 + xI7K1J2 + xI7K1J3 + xI7K1J4 + xI7K1J5 + xI7K1J6 + xI7K1J7 - cI7K1 = 0
  xI7K2J1 + xI7K2J2 + xI7K2J3 + xI7K2J4 + xI7K2J5 + xI7K2J6 + xI7K2J7 - cI7K2 = 0
  xI7K3J1 + xI7K3J2 + xI7K3J3 + xI7K3J4 + xI7K3J5 + xI7K3J6 + xI7K3J7 - cI7K3 = 0
  xI7K4J1 + xI7K4J2 + xI7K4J3 + xI7K4J4 + xI7K4J5 + xI7K4J6 + xI7K4J7 - cI7K4 = 0
  xI7K5J1 + xI7K5J2 + xI7K5J3 + xI7K5J4 + xI7K5J5 + xI7K5J6 + xI7K5J7 - cI7K5 = 0
  xI7K6J1 + xI7K6J2 + xI7K6J3 + xI7K6J4 + xI7K6J5 + xI7K6J6 + xI7K6J7 - cI7K6 = 0
  xI1K1J1 + xI2K1J1 + xI3K1J1 + xI4K1J1 + xI5K1J1 + xI6K1J1 + xI7K1J1 - dK1J1 = 0
  xI1K1J2 + xI2K1J2 + xI3K1J2 + xI4K1J2 + xI5K1J2 + xI6K1J2 + xI7K1J2 - dK1J2 = 0
  xI1K1J3 + xI2K1J3 + xI3K1J3 + xI4K1J3 + xI5K1J3 + xI6K1J3 + xI7K1J3 - dK1J3 = 0
  xI1K1J4 + xI2K1J4 + xI3K1J4 + xI4K1J4 + xI5K1J4 + xI6K1J4 + xI7K1J4 - dK1J4 = 0
  xI1K1J5 + xI2K1J5 + xI3K1J5 + xI4K1J5 + xI5K1J5 + xI6K1J5 + xI7K1J5 - dK1J5 = 0
  xI1K1J6 + xI2K1J6 + xI3K1J6 + xI4K1J6 + xI5K1J6 + xI6K1J6 + xI7K1J6 - dK1J6 = 0
  xI1K1J7 + xI2K1J7 + xI3K1J7 + xI4K1J7 + xI5K1J7 + xI6K1J7 + xI7K1J7 - dK1J7 = 0
  xI1K2J1 + xI2K2J1 + xI3K2J1 + xI4K2J1 + xI5K2J1 + xI6K2J1 + xI7K2J1 - dK2J1 = 0
  xI1K2J2 + xI2K2J2 + xI3K2J2 + xI4K2J2 + xI5K2J2 + xI6K2J2 + xI7K2J2 - dK2J2 = 0
  xI1K2J3 + xI2K2J3 + xI3K2J3 + xI4K2J3 + xI5K2J3 + xI6K2J3 + xI7K2J3 - dK2J3 = 0
  xI1K2J4 + xI2K2J4 + xI3K2J4 + xI4K2J4 + xI5K2J4 + xI6K2J4 + xI7K2J4 - dK2J4 = 0
  xI1K2J5 + xI2K2J5 + xI3K2J5 + xI4K2J5 + xI5K2J5 + xI6K2J5 + xI7K2J5 - dK2J5 = 0
  xI1K2J6 + xI2K2J6 + xI3K2J6 + xI4K2J6 + xI5K2J6 + xI6K2J6 + xI7K2J6 - dK2J6 = 0
  xI1K2J7 + xI2K2J7 + xI3K2J7 + xI4K2J7 + xI5K2J7 + xI6K2J7 + xI7K2J7 - dK2J7 = 0
  xI1K3J1 + xI2K3J1 + xI3K3J1 + xI4K3J1 + xI5K3J1 + xI6K3J1 + xI7K3J1 - dK3J1 = 0
  xI1K3J2 + xI2K3J2 + xI3K3J2 + xI4K3J2 + xI5K3J2 + xI6K3J2 + xI7K3J2 - dK3J2 = 0
  xI1K3J3 + xI2K3J3 + xI3K3J3 + xI4K3J3 + xI5K3J3 + xI6K3J3 + xI7K3J3 - dK3J3 = 0
  xI1K3J4 + xI2K3J4 + xI3K3J4 + xI4K3J4 + xI5K3J4 + xI6K3J4 + xI7K3J4 - dK3J4 = 0
  xI1K3J5 + xI2K3J5 + xI3K3J5 + xI4K3J5 + xI5K3J5 + xI6K3J5 + xI7K3J5 - dK3J5 = 0
  xI1K3J6 + xI2K3J6 + xI3K3J6 + xI4K3J6 + xI5K3J6 + xI6K3J6 + xI7K3J6 - dK3J6 = 0
  xI1K3J7 + xI2K3J7 + xI3K3J7 + xI4K3J7 + xI5K3J7 + xI6K3J7 + xI7K3J7 - dK3J7 = 0
  xI1K4J1 + xI2K4J1 + xI3K4J1 + xI4K4J1 + xI5K4J1 + xI6K4J1 + xI7K4J1 - dK4J1 = 0
  xI1K4J2 + xI2K4J2 + xI3K4J2 + xI4K4J2 + xI5K4J2 + xI6K4J2 + xI7K4J2 - dK4J2 = 0
  xI1K4J3 + xI2K4J3 + xI3K4J3 + xI4K4J3 + xI5K4J3 + xI6K4J3 + xI7K4J3 - dK4J3 = 0
  xI1K4J4 + xI2K4J4 + xI3K4J4 + xI4K4J4 + xI5K4J4 + xI6K4J4 + xI7K4J4 - dK4J4 = 0
  xI1K4J5 + xI2K4J5 + xI3K4J5 + xI4K4J5 + xI5K4J5 + xI6K4J5 + xI7K4J5 - dK4J5 = 0
  xI1K4J6 + xI2K4J6 + xI3K4J6 + xI4K4J6 + xI5K4J6 + xI6K4J6 + xI7K4J6 - dK4J6 = 0
  xI1K4J7 + xI2K4J7 + xI3K4J7 + xI4K4J7 + xI5K4J7 + xI6K4J7 + xI7K4J7 - dK4J7 = 0
  xI1K5J1 + xI2K5J1 + xI3K5J1 + xI4K5J1 + xI5K5J1 + xI6K5J1 + xI7K5J1 - dK5J1 = 0
  xI1K5J2 + xI2K5J2 + xI3K5J2 + xI4K5J2 + xI5K5J2 + xI6K5J2 + xI7K5J2 - dK5J2 = 0
  xI1K5J3 + xI2K5J3 + xI3K5J3 + xI4K5J3 + xI5K5J3 + xI6K5J3 + xI7K5J3 - dK5J3 = 0
  xI1K5J4 + xI2K5J4 + xI3K5J4 + xI4K5J4 + xI5K5J4 + xI6K5J4 + xI7K5J4 - dK5J4 = 0
  xI1K5J5 + xI2K5J5 + xI3K5J5 + xI4K5J5 + xI5K5J5 + xI6K5J5 + xI7K5J5 - dK5J5 = 0
  xI1K5J6 + xI2K5J6 + xI3K5J6 + xI4K5J6 + xI5K5J6 + xI6K5J6 + xI7K5J6 - dK5J6 = 0
  xI1K5J7 + xI2K5J7 + xI3K5J7 + xI4K5J7 + xI5K5J7 + xI6K5J7 + xI7K5J7 - dK5J7 = 0
  xI1K6J1 + xI2K6J1 + xI3K6J1 + xI4K6J1 + xI5K6J1 + xI6K6J1 + xI7K6J1 - dK6J1 = 0
  xI1K6J2 + xI2K6J2 + xI3K6J2 + xI4K6J2 + xI5K6J2 + xI6K6J2 + xI7K6J2 - dK6J2 = 0
  xI1K6J3 + xI2K6J3 + xI3K6J3 + xI4K6J3 + xI5K6J3 + xI6K6J3 + xI7K6J3 - dK6J3 = 0
  xI1K6J4 + xI2K6J4 + xI3K6J4 + xI4K6J4 + xI5K6J4 + xI6K6J4 + xI7K6J4 - dK6J4 = 0
  xI1K6J5 + xI2K6J5 + xI3K6J5 + xI4K6J5 + xI5K6J5 + xI6K6J5 + xI7K6J5 - dK6J5 = 0
  xI1K6J6 + xI2K6J6 + xI3K6J6 + xI4K6J6 + xI5K6J6 + xI6K6J6 + xI7K6J6 - dK6J6 = 0
  xI1K6J7 + xI2K6J7 + xI3K6J7 + xI4K6J7 + xI5K6J7 + xI6K6J7 + xI7K6J7 - dK6J7 = 0
  uI1K1J1 + uI1K2J1 + uI1K3J1 + uI1K4J1 + uI1K5J1 + uI1K6J1 = 3
  uI1K1J2 + uI1K2J2 + uI1K3J2 + uI1K4J2 + uI1K5J2 + uI1K6J2 = 3
  uI1K1J3 + uI1K2J3 + uI1K3J3 + uI1K4J3 + uI1K5J3 + uI1K6J3 = 3
  uI1K1J4 + uI1K2J4 + uI1K3J4 + uI1K4J4 + uI1K5J4 + uI1K6J4 = 3
  uI1K1J5 + uI1K2J5 + uI1K3J5 + uI1K4J5 + uI1K5J5 + uI1K6J5 = 3
  uI1K1J6 + uI1K2J6 + uI1K3J6 + uI1K4J6 + uI1K5J6 + uI1K6J6 = 3
  uI1K1J7 + uI1K2J7 + uI1K3J7 + uI1K4J7 + uI1K5J7 + uI1K6J7 = 3
  uI2K1J1 + uI2K2J1 + uI2K3J1 + uI2K4J1 + uI2K5J1 + uI2K6J1 = 3
  uI2K1J2 + uI2K2J2 + uI2K3J2 + uI2K4J2 + uI2K5J2 + uI2K6J2 = 3
  uI2K1J3 + uI2K2J3 + uI2K3J3 + uI2K4J3 + uI2K5J3 + uI2K6J3 = 3
  uI2K1J4 + uI2K2J4 + uI2K3J4 + uI2K4J4 + uI2K5J4 + uI2K6J4 = 3
  uI2K1J5 + uI2K2J5 + uI2K3J5 + uI2K4J5 + uI2K5J5 + uI2K6J5 = 3
  uI2K1J6 + uI2K2J6 + uI2K3J6 + uI2K4J6 + uI2K5J6 + uI2K6J6 = 3
  uI2K1J7 + uI2K2J7 + uI2K3J7 + uI2K4J7 + uI2K5J7 + uI2K6J7 = 3
  uI3K1J1 + uI3K2J1 + uI3K3J1 + uI3K4J1 + uI3K5J1 + uI3K6J1 = 3
  uI3K1J2 + uI3K2J2 + uI3K3J2 + uI3K4J2 + uI3K5J2 + uI3K6J2 = 3
  uI3K1J3 + uI3K2J3 + uI3K3J3 + uI3K4J3 + uI3K5J3 + uI3K6J3 = 3
  uI3K1J4 + uI3K2J4 + uI3K3J4 + uI3K4J4 + uI3K5J4 + uI3K6J4 = 3
  uI3K1J5 + uI3K2J5 + uI3K3J5 + uI3K4J5 + uI3K5J5 + uI3K6J5 = 3
  uI3K1J6 + uI3K2J6 + uI3K3J6 + uI3K4J6 + uI3K5J6 + uI3K6J6 = 3
  uI3K1J7 + uI3K2J7 + uI3K3J7 + uI3K4J7 + uI3K5J7 + uI3K6J7 = 3
  uI4K1J1 + uI4K2J1 + uI4K3J1 + uI4K4J1 + uI4K5J1 + uI4K6J1 = 3
  uI4K1J2 + uI4K2J2 + uI4K3J2 + uI4K4J2 + uI4K5J2 + uI4K6J2 = 3
  uI4K1J3 + uI4K2J3 + uI4K3J3 + uI4K4J3 + uI4K5J3 + uI4K6J3 = 3
  uI4K1J4 + uI4K2J4 + uI4K3J4 + uI4K4J4 + uI4K5J4 + uI4K6J4 = 3
  uI4K1J5 + uI4K2J5 + uI4K3J5 + uI4K4J5 + uI4K5J5 + uI4K6J5 = 3
  uI4K1J6 + uI4K2J6 + uI4K3J6 + uI4K4J6 + uI4K5J6 + uI4K6J6 = 3
  uI4K1J7 + uI4K2J7 + uI4K3J7 + uI4K4J7 + uI4K5J7 + uI4K6J7 = 3
  uI5K1J1 + uI5K2J1 + uI5K3J1 + uI5K4J1 + uI5K5J1 + uI5K6J1 = 3
  uI5K1J2 + uI5K2J2 + uI5K3J2 + uI5K4J2 + uI5K5J2 + uI5K6J2 = 3
  uI5K1J3 + uI5K2J3 + uI5K3J3 + uI5K4J3 + uI5K5J3 + uI5K6J3 = 3
  uI5K1J4 + uI5K2J4 + uI5K3J4 + uI5K4J4 + uI5K5J4 + uI5K6J4 = 3
  uI5K1J5 + uI5K2J5 + uI5K3J5 + uI5K4J5 + uI5K5J5 + uI5K6J5 = 3
  uI5K1J6 + uI5K2J6 + uI5K3J6 + uI5K4J6 + uI5K5J6 + uI5K6J6 = 3
  uI5K1J7 + uI5K2J7 + uI5K3J7 + uI5K4J7 + uI5K5J7 + uI5K6J7 = 3
  uI6K1J1 + uI6K2J1 + uI6K3J1 + uI6K4J1 + uI6K5J1 + uI6K6J1 = 3
  uI6K1J2 + uI6K2J2 + uI6K3J2 + uI6K4J2 + uI6K5J2 + uI6K6J2 = 3
  uI6K1J3 + uI6K2J3 + uI6K3J3 + uI6K4J3 + uI6K5J3 + uI6K6J3 = 3
  uI6K1J4 + uI6K2J4 + uI6K3J4 + uI6K4J4 + uI6K5J4 + uI6K6J4 = 3
  uI6K1J5 + uI6K2J5 + uI6K3J5 + uI6K4J5 + uI6K5J5 + uI6K6J5 = 3
  uI6K1J6 + uI6K2J6 + uI6K3J6 + uI6K4J6 + uI6K5J6 + uI6K6J6 = 3
  uI6K1J7 + uI6K2J7 + uI6K3J7 + uI6K4J7 + uI6K5J7 + uI6K6J7 = 3
  uI7K1J1 + uI7K2J1 + uI7K3J1 + uI7K4J1 + uI7K5J1 + uI7K6J1 = 3
  uI7K1J2 + uI7K2J2 + uI7K3J2 + uI7K4J2 + uI7K5J2 + uI7K6J2 = 3
  uI7K1J3 + uI7K2J3 + uI7K3J3 + uI7K4J3 + uI7K5J3 + uI7K6J3 = 3
  uI7K1J4 + uI7K2J4 + uI7K3J4 + uI7K4J4 + uI7K5J4 + uI7K6J4 = 3
  uI7K1J5 + uI7K2J5 + uI7K3J5 + uI7K4J5 + uI7K5J5 + uI7K6J5 = 3
  uI7K1J6 + uI7K2J6 + uI7K3J6 + uI7K4J6 + uI7K5J6 + uI7K6J6 = 3
  uI7K1J7 + uI7K2J7 + uI7K3J7 + uI7K4J7 + uI7K5J7 + uI7K6J7 = 3
  xI1K1J1 + xI1K1J2 + xI1K1J3 + xI1K1J4 + xI1K1J5 + xI1K1J6 + xI1K1J7 + xI2K1J1 + xI2K1J2 + xI2K1J3 + xI2K1J4 + xI2K1J5 + xI2K1J6 + xI2K1J7 + xI3K1J1 + xI3K1J2 + xI3K1J3 + xI3K1J4 + xI3K1J5 + xI3K1J6 + xI3K1J7 + xI4K1J1 + xI4K1J2 + xI4K1J3 + xI4K1J4 + xI4K1J5 + xI4K1J6 + xI4K1J7 + xI5K1J1 + xI5K1J2 + xI5K1J3 + xI5K1J4 + xI5K1J5 + xI5K1J6 + xI5K1J7 + xI6K1J1 + xI6K1J2 + xI6K1J3 + xI6K1J4 + xI6K1J5 + xI6K1J6 + xI6K1J7 + xI7K1J1 + xI7K1J2 + xI7K1J3 + xI7K1J4 + xI7K1J5 + xI7K1J6 + xI7K1J7 - lK1 = 0
  xI1K2J1 + xI1K2J2 + xI1K2J3 + xI1K2J4 + xI1K2J5 + xI1K2J6 + xI1K2J7 + xI2K2J1 + xI2K2J2 + xI2K2J3 + xI2K2J4 + xI2K2J5 + xI2K2J6 + xI2K2J7 + xI3K2J1 + xI3K2J2 + xI3K2J3 + xI3K2J4 + xI3K2J5 + xI3K2J6 + xI3K2J7 + xI4K2J1 + xI4K2J2 + xI4K2J3 + xI4K2J4 + xI4K2J5 + xI4K2J6 + xI4K2J7 + xI5K2J1 + xI5K2J2 + xI5K2J3 + xI5K2J4 + xI5K2J5 + xI5K2J6 + xI5K2J7 + xI6K2J1 + xI6K2J2 + xI6K2J3 + xI6K2J4 + xI6K2J5 + xI6K2J6 + xI6K2J7 + xI7K2J1 + xI7K2J2 + xI7K2J3 + xI7K2J4 + xI7K2J5 + xI7K2J6 + xI7K2J7 - lK2 = 0
  xI1K3J1 + xI1K3J2 + xI1K3J3 + xI1K3J4 + xI1K3J5 + xI1K3J6 + xI1K3J7 + xI2K3J1 + xI2K3J2 + xI2K3J3 + xI2K3J4 + xI2K3J5 + xI2K3J6 + xI2K3J7 + xI3K3J1 + xI3K3J2 + xI3K3J3 + xI3K3J4 + xI3K3J5 + xI3K3J6 + xI3K3J7 + xI4K3J1 + xI4K3J2 + xI4K3J3 + xI4K3J4 + xI4K3J5 + xI4K3J6 + xI4K3J7 + xI5K3J1 + xI5K3J2 + xI5K3J3 + xI5K3J4 + xI5K3J5 + xI5K3J6 + xI5K3J7 + xI6K3J1 + xI6K3J2 + xI6K3J3 + xI6K3J4 + xI6K3J5 + xI6K3J6 + xI6K3J7 + xI7K3J1 + xI7K3J2 + xI7K3J3 + xI7K3J4 + xI7K3J5 + xI7K3J6 + xI7K3J7 - lK3 = 0
  xI1K4J1 + xI1K4J2 + xI1K4J3 + xI1K4J4 + xI1K4J5 + xI1K4J6 + xI1K4J7 + xI2K4J1 + xI2K4J2 + xI2K4J3 + xI2K4J4 + xI2K4J5 + xI2K4J6 + xI2K4J7 + xI3K4J1 + xI3K4J2 + xI3K4J3 + xI3K4J4 + xI3K4J5 + xI3K4J6 + xI3K4J7 + xI4K4J1 + xI4K4J2 + xI4K4J3 + xI4K4J4 + xI4K4J5 + xI4K4J6 + xI4K4J7 + xI5K4J1 + xI5K4J2 + xI5K4J3 + xI5K4J4 + xI5K4J5 + xI5K4J6 + xI5K4J7 + xI6K4J1 + xI6K4J2 + xI6K4J3 + xI6K4J4 + xI6K4J5 + xI6K4J6 + xI6K4J7 + xI7K4J1 + xI7K4J2 + xI7K4J3 + xI7K4J4 + xI7K4J5 + xI7K4J6 + xI7K4J7 - lK4 = 0
  xI1K5J1 + xI1K5J2 + xI1K5J3 + xI1K5J4 + xI1K5J5 + xI1K5J6 + xI1K5J7 + xI2K5J1 + xI2K5J2 + xI2K5J3 + xI2K5J4 + xI2K5J5 + xI2K5J6 + xI2K5J7 + xI3K5J1 + xI3K5J2 + xI3K5J3 + xI3K5J4 + xI3K5J5 + xI3K5J6 + xI3K5J7 + xI4K5J1 + xI4K5J2 + xI4K5J3 + xI4K5J4 + xI4K5J5 + xI4K5J6 + xI4K5J7 + xI5K5J1 + xI5K5J2 + xI5K5J3 + xI5K5J4 + xI5K5J5 + xI5K5J6 + xI5K5J7 + xI6K5J1 + xI6K5J2 + xI6K5J3 + xI6K5J4 + xI6K5J5 + xI6K5J6 + xI6K5J7 + xI7K5J1 + xI7K5J2 + xI7K5J3 + xI7K5J4 + xI7K5J5 + xI7K5J6 + xI7K5J7 - lK5 = 0
  xI1K6J1 + xI1K6J2 + xI1K6J3 + xI1K6J4 + xI1K6J5 + xI1K6J6 + xI1K6J7 + xI2K6J1 + xI2K6J2 + xI2K6J3 + xI2K6J4 + xI2K6J5 + xI2K6J6 + xI2K6J7 + xI3K6J1 + xI3K6J2 + xI3K6J3 + xI3K6J4 + xI3K6J5 + xI3K6J6 + xI3K6J7 + xI4K6J1 + xI4K6J2 + xI4K6J3 + xI4K6J4 + xI4K6J5 + xI4K6J6 + xI4K6J7 + xI5K6J1 + xI5K6J2 + xI5K6J3 + xI5K6J4 + xI5K6J5 + xI5K6J6 + xI5K6J7 + xI6K6J1 + xI6K6J2 + xI6K6J3 + xI6K6J4 + xI6K6J5 + xI6K6J6 + xI6K6J7 + xI7K6J1 + xI7K6J2 + xI7K6J3 + xI7K6J4 + xI7K6J5 + xI7K6J6 + xI7K6J7 - lK6 = 0
  3 xI1K1J1 - 2 uI1K1J1 = 0
  3 xI1K2J1 - 2 uI1K2J1 = 0
  3 xI1K3J1 - 2 uI1K3J1 = 0
  3 xI1K4J1 - 2 uI1K4J1 = 0
  3 xI1K5J1 - 2 uI1K5J1 = 0
  3 xI1K6J1 - 2 uI1K6J1 = 0
  3 xI1K1J2 - 3 uI1K1J2 = 0
  3 xI1K2J2 - 3 uI1K2J2 = 0
  3 xI1K3J2 - 3 uI1K3J2 = 0
  3 xI1K4J2 - 3 uI1K4J2 = 0
  3 xI1K5J2 - 3 uI1K5J2 = 0
  3 xI1K6J2 - 3 uI1K6J2 = 0
  3 xI1K1J3 - 4 uI1K1J3 = 0
  3 xI1K2J3 - 4 uI1K2J3 = 0
  3 xI1K3J3 - 4 uI1K3J3 = 0
  3 xI1K4J3 - 4 uI1K4J3 = 0
  3 xI1K5J3 - 4 uI1K5J3 = 0
  3 xI1K6J3 - 4 uI1K6J3 = 0
  3 xI1K1J4 - 5 uI1K1J4 = 0
  3 xI1K2J4 - 5 uI1K2J4 = 0
  3 xI1K3J4 - 5 uI1K3J4 = 0
  3 xI1K4J4 - 5 uI1K4J4 = 0
  3 xI1K5J4 - 5 uI1K5J4 = 0
  3 xI1K6J4 - 5 uI1K6J4 = 0
  3 xI1K1J5 - 6 uI1K1J5 = 0
  3 xI1K2J5 - 6 uI1K2J5 = 0
  3 xI1K3J5 - 6 uI1K3J5 = 0
  3 xI1K4J5 - 6 uI1K4J5 = 0
  3 xI1K5J5 - 6 uI1K5J5 = 0
  3 xI1K6J5 - 6 uI1K6J5 = 0
  3 xI1K1J6 - 7 uI1K1J6 = 0
  3 xI1K2J6 - 7 uI1K2J6 = 0
  3 xI1K3J6 - 7 uI1K3J6 = 0
  3 xI1K4J6 - 7 uI1K4J6 = 0
  3 xI1K5J6 - 7 uI1K5J6 = 0
  3 xI1K6J6 - 7 uI1K6J6 = 0
  3 xI1K1J7 - 8 uI1K1J7 = 0
  3 xI1K2J7 - 8 uI1K2J7 = 0
  3 xI1K3J7 - 8 uI1K3J7 = 0
  3 xI1K4J7 - 8 uI1K4J7 = 0
  3 xI1K5J7 - 8 uI1K5J7 = 0
  3 xI1K6J7 - 8 uI1K6J7 = 0
  3 xI2K1J1 - 3 uI2K1J1 = 0
  3 xI2K2J1 - 3 uI2K2J1 = 0
  3 xI2K3J1 - 3 uI2K3J1 = 0
  3 xI2K4J1 - 3 uI2K4J1 = 0
  3 xI2K5J1 - 3 uI2K5J1 = 0
  3 xI2K6J1 - 3 uI2K6J1 = 0
  3 xI2K1J2 - 4 uI2K1J2 = 0
  3 xI2K2J2 - 4 uI2K2J2 = 0
  3 xI2K3J2 - 4 uI2K3J2 = 0
  3 xI2K4J2 - 4 uI2K4J2 = 0
  3 xI2K5J2 - 4 uI2K5J2 = 0
  3 xI2K6J2 - 4 uI2K6J2 = 0
  3 xI2K1J3 - 5 uI2K1J3 = 0
  3 xI2K2J3 - 5 uI2K2J3 = 0
  3 xI2K3J3 - 5 uI2K3J3 = 0
  3 xI2K4J3 - 5 uI2K4J3 = 0
  3 xI2K5J3 - 5 uI2K5J3 = 0
  3 xI2K6J3 - 5 uI2K6J3 = 0
  3 xI2K1J4 - 6 uI2K1J4 = 0
  3 xI2K2J4 - 6 uI2K2J4 = 0
  3 xI2K3J4 - 6 uI2K3J4 = 0
  3 xI2K4J4 - 6 uI2K4J4 = 0
  3 xI2K5J4 - 6 uI2K5J4 = 0
  3 xI2K6J4 - 6 uI2K6J4 = 0
  3 xI2K1J5 - 7 uI2K1J5 = 0
  3 xI2K2J5 - 7 uI2K2J5 = 0
  3 xI2K3J5 - 7 uI2K3J5 = 0
  3 xI2K4J5 - 7 uI2K4J5 = 0
  3 xI2K5J5 - 7 uI2K5J5 = 0
  3 xI2K6J5 - 7 uI2K6J5 = 0
  3 xI2K1J6 - 8 uI2K1J6 = 0
  3 xI2K2J6 - 8 uI2K2J6 = 0
  3 xI2K3J6 - 8 uI2K3J6 = 0
  3 xI2K4J6 - 8 uI2K4J6 = 0
  3 xI2K5J6 - 8 uI2K5J6 = 0
  3 xI2K6J6 - 8 uI2K6J6 = 0
  3 xI2K1J7 - 9 uI2K1J7 = 0
  3 xI2K2J7 - 9 uI2K2J7 = 0
  3 xI2K3J7 - 9 uI2K3J7 = 0
  3 xI2K4J7 - 9 uI2K4J7 = 0
  3 xI2K5J7 - 9 uI2K5J7 = 0
  3 xI2K6J7 - 9 uI2K6J7 = 0
  3 xI3K1J1 - 4 uI3K1J1 = 0
  3 xI3K2J1 - 4 uI3K2J1 = 0
  3 xI3K3J1 - 4 uI3K3J1 = 0
  3 xI3K4J1 - 4 uI3K4J1 = 0
  3 xI3K5J1 - 4 uI3K5J1 = 0
  3 xI3K6J1 - 4 uI3K6J1 = 0
  3 xI3K1J2 - 5 uI3K1J2 = 0
  3 xI3K2J2 - 5 uI3K2J2 = 0
  3 xI3K3J2 - 5 uI3K3J2 = 0
  3 xI3K4J2 - 5 uI3K4J2 = 0
  3 xI3K5J2 - 5 uI3K5J2 = 0
  3 xI3K6J2 - 5 uI3K6J2 = 0
  3 xI3K1J3 - 6 uI3K1J3 = 0
  3 xI3K2J3 - 6 uI3K2J3 = 0
  3 xI3K3J3 - 6 uI3K3J3 = 0
  3 xI3K4J3 - 6 uI3K4J3 = 0
  3 xI3K5J3 - 6 uI3K5J3 = 0
  3 xI3K6J3 - 6 uI3K6J3 = 0
  3 xI3K1J4 - 7 uI3K1J4 = 0
  3 xI3K2J4 - 7 uI3K2J4 = 0
  3 xI3K3J4 - 7 uI3K3J4 = 0
  3 xI3K4J4 - 7 uI3K4J4 = 0
  3 xI3K5J4 - 7 uI3K5J4 = 0
  3 xI3K6J4 - 7 uI3K6J4 = 0
  3 xI3K1J5 - 8 uI3K1J5 = 0
  3 xI3K2J5 - 8 uI3K2J5 = 0
  3 xI3K3J5 - 8 uI3K3J5 = 0
  3 xI3K4J5 - 8 uI3K4J5 = 0
  3 xI3K5J5 - 8 uI3K5J5 = 0
  3 xI3K6J5 - 8 uI3K6J5 = 0
  3 xI3K1J6 - 9 uI3K1J6 = 0
  3 xI3K2J6 - 9 uI3K2J6 = 0
  3 xI3K3J6 - 9 uI3K3J6 = 0
  3 xI3K4J6 - 9 uI3K4J6 = 0
  3 xI3K5J6 - 9 uI3K5J6 = 0
  3 xI3K6J6 - 9 uI3K6J6 = 0
  3 xI3K1J7 - 10 uI3K1J7 = 0
  3 xI3K2J7 - 10 uI3K2J7 = 0
  3 xI3K3J7 - 10 uI3K3J7 = 0
  3 xI3K4J7 - 10 uI3K4J7 = 0
  3 xI3K5J7 - 10 uI3K5J7 = 0
  3 xI3K6J7 - 10 uI3K6J7 = 0
  3 xI4K1J1 - 5 uI4K1J1 = 0
  3 xI4K2J1 - 5 uI4K2J1 = 0
  3 xI4K3J1 - 5 uI4K3J1 = 0
  3 xI4K4J1 - 5 uI4K4J1 = 0
  3 xI4K5J1 - 5 uI4K5J1 = 0
  3 xI4K6J1 - 5 uI4K6J1 = 0
  3 xI4K1J2 - 6 uI4K1J2 = 0
  3 xI4K2J2 - 6 uI4K2J2 = 0
  3 xI4K3J2 - 6 uI4K3J2 = 0
  3 xI4K4J2 - 6 uI4K4J2 = 0
  3 xI4K5J2 - 6 uI4K5J2 = 0
  3 xI4K6J2 - 6 uI4K6J2 = 0
  3 xI4K1J3 - 7 uI4K1J3 = 0
  3 xI4K2J3 - 7 uI4K2J3 = 0
  3 xI4K3J3 - 7 uI4K3J3 = 0
  3 xI4K4J3 - 7 uI4K4J3 = 0
  3 xI4K5J3 - 7 uI4K5J3 = 0
  3 xI4K6J3 - 7 uI4K6J3 = 0
  3 xI4K1J4 - 8 uI4K1J4 = 0
  3 xI4K2J4 - 8 uI4K2J4 = 0
  3 xI4K3J4 - 8 uI4K3J4 = 0
  3 xI4K4J4 - 8 uI4K4J4 = 0
  3 xI4K5J4 - 8 uI4K5J4 = 0
  3 xI4K6J4 - 8 uI4K6J4 = 0
  3 xI4K1J5 - 9 uI4K1J5 = 0
  3 xI4K2J5 - 9 uI4K2J5 = 0
  3 xI4K3J5 - 9 uI4K3J5 = 0
  3 xI4K4J5 - 9 uI4K4J5 = 0
  3 xI4K5J5 - 9 uI4K5J5 = 0
  3 xI4K6J5 - 9 uI4K6J5 = 0
  3 xI4K1J6 - 10 uI4K1J6 = 0
  3 xI4K2J6 - 10 uI4K2J6 = 0
  3 xI4K3J6 - 10 uI4K3J6 = 0
  3 xI4K4J6 - 10 uI4K4J6 = 0
  3 xI4K5J6 - 10 uI4K5J6 = 0
  3 xI4K6J6 - 10 uI4K6J6 = 0
  3 xI4K1J7 - 11 uI4K1J7 = 0
  3 xI4K2J7 - 11 uI4K2J7 = 0
  3 xI4K3J7 - 11 uI4K3J7 = 0
  3 xI4K4J7 - 11 uI4K4J7 = 0
  3 xI4K5J7 - 11 uI4K5J7 = 0
  3 xI4K6J7 - 11 uI4K6J7 = 0
  3 xI5K1J1 - 6 uI5K1J1 = 0
  3 xI5K2J1 - 6 uI5K2J1 = 0
  3 xI5K3J1 - 6 uI5K3J1 = 0
  3 xI5K4J1 - 6 uI5K4J1 = 0
  3 xI5K5J1 - 6 uI5K5J1 = 0
  3 xI5K6J1 - 6 uI5K6J1 = 0
  3 xI5K1J2 - 7 uI5K1J2 = 0
  3 xI5K2J2 - 7 uI5K2J2 = 0
  3 xI5K3J2 - 7 uI5K3J2 = 0
  3 xI5K4J2 - 7 uI5K4J2 = 0
  3 xI5K5J2 - 7 uI5K5J2 = 0
  3 xI5K6J2 - 7 uI5K6J2 = 0
  3 xI5K1J3 - 8 uI5K1J3 = 0
  3 xI5K2J3 - 8 uI5K2J3 = 0
  3 xI5K3J3 - 8 uI5K3J3 = 0
  3 xI5K4J3 - 8 uI5K4J3 = 0
  3 xI5K5J3 - 8 uI5K5J3 = 0
  3 xI5K6J3 - 8 uI5K6J3 = 0
  3 xI5K1J4 - 9 uI5K1J4 = 0
  3 xI5K2J4 - 9 uI5K2J4 = 0
  3 xI5K3J4 - 9 uI5K3J4 = 0
  3 xI5K4J4 - 9 uI5K4J4 = 0
  3 xI5K5J4 - 9 uI5K5J4 = 0
  3 xI5K6J4 - 9 uI5K6J4 = 0
  3 xI5K1J5 - 10 uI5K1J5 = 0
  3 xI5K2J5 - 10 uI5K2J5 = 0
  3 xI5K3J5 - 10 uI5K3J5 = 0
  3 xI5K4J5 - 10 uI5K4J5 = 0
  3 xI5K5J5 - 10 uI5K5J5 = 0
  3 xI5K6J5 - 10 uI5K6J5 = 0
  3 xI5K1J6 - 11 uI5K1J6 = 0
  3 xI5K2J6 - 11 uI5K2J6 = 0
  3 xI5K3J6 - 11 uI5K3J6 = 0
  3 xI5K4J6 - 11 uI5K4J6 = 0
  3 xI5K5J6 - 11 uI5K5J6 = 0
  3 xI5K6J6 - 11 uI5K6J6 = 0
  3 xI5K1J7 - 12 uI5K1J7 = 0
  3 xI5K2J7 - 12 uI5K2J7 = 0
  3 xI5K3J7 - 12 uI5K3J7 = 0
  3 xI5K4J7 - 12 uI5K4J7 = 0
  3 xI5K5J7 - 12 uI5K5J7 = 0
  3 xI5K6J7 - 12 uI5K6J7 = 0
  3 xI6K1J1 - 7 uI6K1J1 = 0
  3 xI6K2J1 - 7 uI6K2J1 = 0
  3 xI6K3J1 - 7 uI6K3J1 = 0
  3 xI6K4J1 - 7 uI6K4J1 = 0
  3 xI6K5J1 - 7 uI6K5J1 = 0
  3 xI6K6J1 - 7 uI6K6J1 = 0
  3 xI6K1J2 - 8 uI6K1J2 = 0
  3 xI6K2J2 - 8 uI6K2J2 = 0
  3 xI6K3J2 - 8 uI6K3J2 = 0
  3 xI6K4J2 - 8 uI6K4J2 = 0
  3 xI6K5J2 - 8 uI6K5J2 = 0
  3 xI6K6J2 - 8 uI6K6J2 = 0
  3 xI6K1J3 - 9 uI6K1J3 = 0
  3 xI6K2J3 - 9 uI6K2J3 = 0
  3 xI6K3J3 - 9 uI6K3J3 = 0
  3 xI6K4J3 - 9 uI6K4J3 = 0
  3 xI6K5J3 - 9 uI6K5J3 = 0
  3 xI6K6J3 - 9 uI6K6J3 = 0
  3 xI6K1J4 - 10 uI6K1J4 = 0
  3 xI6K2J4 - 10 uI6K2J4 = 0
  3 xI6K3J4 - 10 uI6K3J4 = 0
  3 xI6K4J4 - 10 uI6K4J4 = 0
  3 xI6K5J4 - 10 uI6K5J4 = 0
  3 xI6K6J4 - 10 uI6K6J4 = 0
  3 xI6K1J5 - 11 uI6K1J5 = 0
  3 xI6K2J5 - 11 uI6K2J5 = 0
  3 xI6K3J5 - 11 uI6K3J5 = 0
  3 xI6K4J5 - 11 uI6K4J5 = 0
  3 xI6K5J5 - 11 uI6K5J5 = 0
  3 xI6K6J5 - 11 uI6K6J5 = 0
  3 xI6K1J6 - 12 uI6K1J6 = 0
  3 xI6K2J6 - 12 uI6K2J6 = 0
  3 xI6K3J6 - 12 uI6K3J6 = 0
  3 xI6K4J6 - 12 uI6K4J6 = 0
  3 xI6K5J6 - 12 uI6K5J6 = 0
  3 xI6K6J6 - 12 uI6K6J6 = 0
  3 xI6K1J7 - 13 uI6K1J7 = 0
  3 xI6K2J7 - 13 uI6K2J7 = 0
  3 xI6K3J7 - 13 uI6K3J7 = 0
  3 xI6K4J7 - 13 uI6K4J7 = 0
  3 xI6K5J7 - 13 uI6K5J7 = 0
  3 xI6K6J7 - 13 uI6K6J7 = 0
  3 xI7K1J1 - 8 uI7K1J1 = 0
  3 xI7K2J1 - 8 uI7K2J1 = 0
  3 xI7K3J1 - 8 uI7K3J1 = 0
  3 xI7K4J1 - 8 uI7K4J1 = 0
  3 xI7K5J1 - 8 uI7K5J1 = 0
  3 xI7K6J1 - 8 uI7K6J1 = 0
  3 xI7K1J2 - 9 uI7K1J2 = 0
  3 xI7K2J2 - 9 uI7K2J2 = 0
  3 xI7K3J2 - 9 uI7K3J2 = 0
  3 xI7K4J2 - 9 uI7K4J2 = 0
  3 xI7K5J2 - 9 uI7K5J2 = 0
  3 xI7K6J2 - 9 uI7K6J2 = 0
  3 xI7K1J3 - 10 uI7K1J3 = 0
  3 xI7K2J3 - 10 uI7K2J3 = 0
  3 xI7K3J3 - 10 uI7K3J3 = 0
  3 xI7K4J3 - 10 uI7K4J3 = 0
  3 xI7K5J3 - 10 uI7K5J3 = 0
  3 xI7K6J3 - 10 uI7K6J3 = 0
  3 xI7K1J4 - 11 uI7K1J4 = 0
  3 xI7K2J4 - 11 uI7K2J4 = 0
  3 xI7K3J4 - 11 uI7K3J4 = 0
  3 xI7K4J4 - 11 uI7K4J4 = 0
  3 xI7K5J4 - 11 uI7K5J4 = 0
  3 xI7K6J4 - 11 uI7K6J4 = 0
  3 xI7K1J5 - 12 uI7K1J5 = 0
  3 xI7K2J5 - 12 uI7K2J5 = 0
  3 xI7K3J5 - 12 uI7K3J5 = 0
  3 xI7K4J5 - 12 uI7K4J5 = 0
  3 xI7K5J5 - 12 uI7K5J5 = 0
  3 xI7K6J5 - 12 uI7K6J5 = 0
  3 xI7K1J6 - 13 uI7K1J6 = 0
  3 xI7K2J6 - 13 uI7K2J6 = 0
  3 xI7K3J6 - 13 uI7K3J6 = 0
  3 xI7K4J6 - 13 uI7K4J6 = 0
  3 xI7K5J6 - 13 uI7K5J6 = 0
  3 xI7K6J6 - 13 uI7K6J6 = 0
  3 xI7K1J7 - 14 uI7K1J7 = 0
  3 xI7K2J7 - 14 uI7K2J7 = 0
  3 xI7K3J7 - 14 uI7K3J7 = 0
  3 xI7K4J7 - 14 uI7K4J7 = 0
  3 xI7K5J7 - 14 uI7K5J7 = 0
  3 xI7K6J7 - 14 uI7K6J7 = 0
  cI1K1 + cI2K1 + cI3K1 + cI4K1 + cI5K1 + cI6K1 + cI7K1 - r <= 0
  cI1K2 + cI2K2 + cI3K2 + cI4K2 + cI5K2 + cI6K2 + cI7K2 - r <= 0
  cI1K3 + cI2K3 + cI3K3 + cI4K3 + cI5K3 + cI6K3 + cI7K3 - r <= 0
  cI1K4 + cI2K4 + cI3K4 + cI4K4 + cI5K4 + cI6K4 + cI7K4 - r <= 0
  cI1K5 + cI2K5 + cI3K5 + cI4K5 + cI5K5 + cI6K5 + cI7K5 - r <= 0
  cI1K6 + cI2K6 + cI3K6 + cI4K6 + cI5K6 + cI6K6 + cI7K6 - r <= 0
BOUND
  0 <= xI1K1J1
  0 <= xI1K1J2
  0 <= xI1K1J3
  0 <= xI1K1J4
  0 <= xI1K1J5
  0 <= xI1K1J6
  0 <= xI1K1J7
  0 <= xI1K2J1
  0 <= xI1K2J2
  0 <= xI1K2J3
  0 <= xI1K2J4
  0 <= xI1K2J5
  0 <= xI1K2J6
  0 <= xI1K2J7
  0 <= xI1K3J1
  0 <= xI1K3J2
  0 <= xI1K3J3
  0 <= xI1K3J4
  0 <= xI1K3J5
  0 <= xI1K3J6
  0 <= xI1K3J7
  0 <= xI1K4J1
  0 <= xI1K4J2
  0 <= xI1K4J3
  0 <= xI1K4J4
  0 <= xI1K4J5
  0 <= xI1K4J6
  0 <= xI1K4J7
  0 <= xI1K5J1
  0 <= xI1K5J2
  0 <= xI1K5J3
  0 <= xI1K5J4
  0 <= xI1K5J5
  0 <= xI1K5J6
  0 <= xI1K5J7
  0 <= xI1K6J1
  0 <= xI1K6J2
  0 <= xI1K6J3
  0 <= xI1K6J4
  0 <= xI1K6J5
  0 <= xI1K6J6
  0 <= xI1K6J7
  0 <= xI2K1J1
  0 <= xI2K1J2
  0 <= xI2K1J3
  0 <= xI2K1J4
  0 <= xI2K1J5
  0 <= xI2K1J6
  0 <= xI2K1J7
  0 <= xI2K2J1
  0 <= xI2K2J2
  0 <= xI2K2J3
  0 <= xI2K2J4
  0 <= xI2K2J5
  0 <= xI2K2J6
  0 <= xI2K2J7
  0 <= xI2K3J1
  0 <= xI2K3J2
  0 <= xI2K3J3
  0 <= xI2K3J4
  0 <= xI2K3J5
  0 <= xI2K3J6
  0 <= xI2K3J7
  0 <= xI2K4J1
  0 <= xI2K4J2
  0 <= xI2K4J3
  0 <= xI2K4J4
  0 <= xI2K4J5
  0 <= xI2K4J6
  0 <= xI2K4J7
  0 <= xI2K5J1
  0 <= xI2K5J2
  0 <= xI2K5J3
  0 <= xI2K5J4
  0 <= xI2K5J5
  0 <= xI2K5J6
  0 <= xI2K5J7
  0 <= xI2K6J1
  0 <= xI2K6J2
  0 <= xI2K6J3
  0 <= xI2K6J4
  0 <= xI2K6J5
  0 <= xI2K6J6
  0 <= xI2K6J7
  0 <= xI3K1J1
  0 <= xI3K1J2
  0 <= xI3K1J3
  0 <= xI3K1J4
  0 <= xI3K1J5
  0 <= xI3K1J6
  0 <= xI3K1J7
  0 <= xI3K2J1
  0 <= xI3K2J2
  0 <= xI3K2J3
  0 <= xI3K2J4
  0 <= xI3K2J5
  0 <= xI3K2J6
  0 <= xI3K2J7
  0 <= xI3K3J1
  0 <= xI3K3J2
  0 <= xI3K3J3
  0 <= xI3K3J4
  0 <= xI3K3J5
  0 <= xI3K3J6
  0 <= xI3K3J7
  0 <= xI3K4J1
  0 <= xI3K4J2
  0 <= xI3K4J3
  0 <= xI3K4J4
  0 <= xI3K4J5
  0 <= xI3K4J6
  0 <= xI3K4J7
  0 <= xI3K5J1
  0 <= xI3K5J2
  0 <= xI3K5J3
  0 <= xI3K5J4
  0 <= xI3K5J5
  0 <= xI3K5J6
  0 <= xI3K5J7
  0 <= xI3K6J1
  0 <= xI3K6J2
  0 <= xI3K6J3
  0 <= xI3K6J4
  0 <= xI3K6J5
  0 <= xI3K6J6
  0 <= xI3K6J7
  0 <= xI4K1J1
  0 <= xI4K1J2
  0 <= xI4K1J3
  0 <= xI4K1J4
  0 <= xI4K1J5
  0 <= xI4K1J6
  0 <= xI4K1J7
  0 <= xI4K2J1
  0 <= xI4K2J2
  0 <= xI4K2J3
  0 <= xI4K2J4
  0 <= xI4K2J5
  0 <= xI4K2J6
  0 <= xI4K2J7
  0 <= xI4K3J1
  0 <= xI4K3J2
  0 <= xI4K3J3
  0 <= xI4K3J4
  0 <= xI4K3J5
  0 <= xI4K3J6
  0 <= xI4K3J7
  0 <= xI4K4J1
  0 <= xI4K4J2
  0 <= xI4K4J3
  0 <= xI4K4J4
  0 <= xI4K4J5
  0 <= xI4K4J6
  0 <= xI4K4J7
  0 <= xI4K5J1
  0 <= xI4K5J2
  0 <= xI4K5J3
  0 <= xI4K5J4
  0 <= xI4K5J5
  0 <= xI4K5J6
  0 <= xI4K5J7
  0 <= xI4K6J1
  0 <= xI4K6J2
  0 <= xI4K6J3
  0 <= xI4K6J4
  0 <= xI4K6J5
  0 <= xI4K6J6
  0 <= xI4K6J7
  0 <= xI5K1J1
  0 <= xI5K1J2
  0 <= xI5K1J3
  0 <= xI5K1J4
  0 <= xI5K1J5
  0 <= xI5K1J6
  0 <= xI5K1J7
  0 <= xI5K2J1
  0 <= xI5K2J2
  0 <= xI5K2J3
  0 <= xI5K2J4
  0 <= xI5K2J5
  0 <= xI5K2J6
  0 <= xI5K2J7
  0 <= xI5K3J1
  0 <= xI5K3J2
  0 <= xI5K3J3
  0 <= xI5K3J4
  0 <= xI5K3J5
  0 <= xI5K3J6
  0 <= xI5K3J7
  0 <= xI5K4J1
  0 <= xI5K4J2
  0 <= xI5K4J3
  0 <= xI5K4J4
  0 <= xI5K4J5
  0 <= xI5K4J6
  0 <= xI5K4J7
  0 <= xI5K5J1
  0 <= xI5K5J2
  0 <= xI5K5J3
  0 <= xI5K5J4
  0 <= xI5K5J5
  0 <= xI5K5J6
  0 <= xI5K5J7
  0 <= xI5K6J1
  0 <= xI5K6J2
  0 <= xI5K6J3
  0 <= xI5K6J4
  0 <= xI5K6J5
  0 <= xI5K6J6
  0 <= xI5K6J7
  0 <= xI6K1J1
  0 <= xI6K1J2
  0 <= xI6K1J3
  0 <= xI6K1J4
  0 <= xI6K1J5
  0 <= xI6K1J6
  0 <= xI6K1J7
  0 <= xI6K2J1
  0 <= xI6K2J2
  0 <= xI6K2J3
  0 <= xI6K2J4
  0 <= xI6K2J5
  0 <= xI6K2J6
  0 <= xI6K2J7
  0 <= xI6K3J1
  0 <= xI6K3J2
  0 <= xI6K3J3
  0 <= xI6K3J4
  0 <= xI6K3J5
  0 <= xI6K3J6
  0 <= xI6K3J7
  0 <= xI6K4J1
  0 <= xI6K4J2
  0 <= xI6K4J3
  0 <= xI6K4J4
  0 <= xI6K4J5
  0 <= xI6K4J6
  0 <= xI6K4J7
  0 <= xI6K5J1
  0 <= xI6K5J2
  0 <= xI6K5J3
  0 <= xI6K5J4
  0 <= xI6K5J5
  0 <= xI6K5J6
  0 <= xI6K5J7
  0 <= xI6K6J1
  0 <= xI6K6J2
  0 <= xI6K6J3
  0 <= xI6K6J4
  0 <= xI6K6J5
  0 <= xI6K6J6
  0 <= xI6K6J7
  0 <= xI7K1J1
  0 <= xI7K1J2
  0 <= xI7K1J3
  0 <= xI7K1J4
  0 <= xI7K1J5
  0 <= xI7K1J6
  0 <= xI7K1J7
  0 <= xI7K2J1
  0 <= xI7K2J2
  0 <= xI7K2J3
  0 <= xI7K2J4
  0 <= xI7K2J5
  0 <= xI7K2J6
  0 <= xI7K2J7
  0 <= xI7K3J1
  0 <= xI7K3J2
  0 <= xI7K3J3
  0 <= xI7K3J4
  0 <= xI7K3J5
  0 <= xI7K3J6
  0 <= xI7K3J7
  0 <= xI7K4J1
  0 <= xI7K4J2
  0 <= xI7K4J3
  0 <= xI7K4J4
  0 <= xI7K4J5
  0 <= xI7K4J6
  0 <= xI7K4J7
  0 <= xI7K5J1
  0 <= xI7K5J2
  0 <= xI7K5J3
  0 <= xI7K5J4
  0 <= xI7K5J5
  0 <= xI7K5J6
  0 <= xI7K5J7
  0 <= xI7K6J1
  0 <= xI7K6J2
  0 <= xI7K6J3
  0 <= xI7K6J4
  0 <= xI7K6J5
  0 <= xI7K6J6
  0 <= xI7K6J7
  0 <= r
BIN
  uI1K1J1
  uI1K2J1
  uI1K3J1
  uI1K4J1
  uI1K5J1
  uI1K6J1
  uI1K1J2
  uI1K2J2
  uI1K3J2
  uI1K4J2
  uI1K5J2
  uI1K6J2
  uI1K1J3
  uI1K2J3
  uI1K3J3
  uI1K4J3
  uI1K5J3
  uI1K6J3
  uI1K1J4
  uI1K2J4
  uI1K3J4
  uI1K4J4
  uI1K5J4
  uI1K6J4
  uI1K1J5
  uI1K2J5
  uI1K3J5
  uI1K4J5
  uI1K5J5
  uI1K6J5
  uI1K1J6
  uI1K2J6
  uI1K3J6
  uI1K4J6
  uI1K5J6
  uI1K6J6
  uI1K1J7
  uI1K2J7
  uI1K3J7
  uI1K4J7
  uI1K5J7
  uI1K6J7
  uI2K1J1
  uI2K2J1
  uI2K3J1
  uI2K4J1
  uI2K5J1
  uI2K6J1
  uI2K1J2
  uI2K2J2
  uI2K3J2
  uI2K4J2
  uI2K5J2
  uI2K6J2
  uI2K1J3
  uI2K2J3
  uI2K3J3
  uI2K4J3
  uI2K5J3
  uI2K6J3
  uI2K1J4
  uI2K2J4
  uI2K3J4
  uI2K4J4
  uI2K5J4
  uI2K6J4
  uI2K1J5
  uI2K2J5
  uI2K3J5
  uI2K4J5
  uI2K5J5
  uI2K6J5
  uI2K1J6
  uI2K2J6
  uI2K3J6
  uI2K4J6
  uI2K5J6
  uI2K6J6
  uI2K1J7
  uI2K2J7
  uI2K3J7
  uI2K4J7
  uI2K5J7
  uI2K6J7
  uI3K1J1
  uI3K2J1
  uI3K3J1
  uI3K4J1
  uI3K5J1
  uI3K6J1
  uI3K1J2
  uI3K2J2
  uI3K3J2
  uI3K4J2
  uI3K5J2
  uI3K6J2
  uI3K1J3
  uI3K2J3
  uI3K3J3
  uI3K4J3
  uI3K5J3
  uI3K6J3
  uI3K1J4
  uI3K2J4
  uI3K3J4
  uI3K4J4
  uI3K5J4
  uI3K6J4
  uI3K1J5
  uI3K2J5
  uI3K3J5
  uI3K4J5
  uI3K5J5
  uI3K6J5
  uI3K1J6
  uI3K2J6
  uI3K3J6
  uI3K4J6
  uI3K5J6
  uI3K6J6
  uI3K1J7
  uI3K2J7
  uI3K3J7
  uI3K4J7
  uI3K5J7
  uI3K6J7
  uI4K1J1
  uI4K2J1
  uI4K3J1
  uI4K4J1
  uI4K5J1
  uI4K6J1
  uI4K1J2
  uI4K2J2
  uI4K3J2
  uI4K4J2
  uI4K5J2
  uI4K6J2
  uI4K1J3
  uI4K2J3
  uI4K3J3
  uI4K4J3
  uI4K5J3
  uI4K6J3
  uI4K1J4
  uI4K2J4
  uI4K3J4
  uI4K4J4
  uI4K5J4
  uI4K6J4
  uI4K1J5
  uI4K2J5
  uI4K3J5
  uI4K4J5
  uI4K5J5
  uI4K6J5
  uI4K1J6
  uI4K2J6
  uI4K3J6
  uI4K4J6
  uI4K5J6
  uI4K6J6
  uI4K1J7
  uI4K2J7
  uI4K3J7
  uI4K4J7
  uI4K5J7
  uI4K6J7
  uI5K1J1
  uI5K2J1
  uI5K3J1
  uI5K4J1
  uI5K5J1
  uI5K6J1
  uI5K1J2
  uI5K2J2
  uI5K3J2
  uI5K4J2
  uI5K5J2
  uI5K6J2
  uI5K1J3
  uI5K2J3
  uI5K3J3
  uI5K4J3
  uI5K5J3
  uI5K6J3
  uI5K1J4
  uI5K2J4
  uI5K3J4
  uI5K4J4
  uI5K5J4
  uI5K6J4
  uI5K1J5
  uI5K2J5
  uI5K3J5
  uI5K4J5
  uI5K5J5
  uI5K6J5
  uI5K1J6
  uI5K2J6
  uI5K3J6
  uI5K4J6
  uI5K5J6
  uI5K6J6
  uI5K1J7
  uI5K2J7
  uI5K3J7
  uI5K4J7
  uI5K5J7
  uI5K6J7
  uI6K1J1
  uI6K2J1
  uI6K3J1
  uI6K4J1
  uI6K5J1
  uI6K6J1
  uI6K1J2
  uI6K2J2
  uI6K3J2
  uI6K4J2
  uI6K5J2
  uI6K6J2
  uI6K1J3
  uI6K2J3
  uI6K3J3
  uI6K4J3
  uI6K5J3
  uI6K6J3
  uI6K1J4
  uI6K2J4
  uI6K3J4
  uI6K4J4
  uI6K5J4
  uI6K6J4
  uI6K1J5
  uI6K2J5
  uI6K3J5
  uI6K4J5
  uI6K5J5
  uI6K6J5
  uI6K1J6
  uI6K2J6
  uI6K3J6
  uI6K4J6
  uI6K5J6
  uI6K6J6
  uI6K1J7
  uI6K2J7
  uI6K3J7
  uI6K4J7
  uI6K5J7
  uI6K6J7
  uI7K1J1
  uI7K2J1
  uI7K3J1
  uI7K4J1
  uI7K5J1
  uI7K6J1
  uI7K1J2
  uI7K2J2
  uI7K3J2
  uI7K4J2
  uI7K5J2
  uI7K6J2
  uI7K1J3
  uI7K2J3
  uI7K3J3
  uI7K4J3
  uI7K5J3
  uI7K6J3
  uI7K1J4
  uI7K2J4
  uI7K3J4
  uI7K4J4
  uI7K5J4
  uI7K6J4
  uI7K1J5
  uI7K2J5
  uI7K3J5
  uI7K4J5
  uI7K5J5
  uI7K6J5
  uI7K1J6
  uI7K2J6
  uI7K3J6
  uI7K4J6
  uI7K5J6
  uI7K6J6
  uI7K1J7
  uI7K2J7
  uI7K3J7
  uI7K4J7
  uI7K5J7
  uI7K6J7
END